NAME : amz0569.79325_79325.tour
COMMENT : Cost = 79325_79325
COMMENT : Found by LKH-AMZ [Keld Helsgaun] Sun May 11 12:35:22 2025
COMMENT : TW viol.: 0 #: 0
TYPE : TOUR
DIMENSION : 73
TOUR_SECTION
55
57
3
6
31
65
51
4
64
52
20
27
59
29
1
50
37
30
66
34
42
13
54
32
10
9
48
61
7
47
43
63
35
12
67
45
44
68
24
28
23
21
15
70
22
39
56
25
62
73
14
38
5
46
19
58
41
33
36
11
40
71
26
72
16
17
2
49
8
69
53
18
60
-1
EOF
